33D32945 STP File, STP Format Version 1.0

SECTION Comments
Name "shell_n10_d4_s21"
Problem "Euclidean Steiner Tree Problem"
Remark "Generated with STPGenerator. 4 dimensions."
END

SECTION Graph
Nodes 10
END

SECTION Coordinates
DDDD 0 0.0136613279 -0.8003615309 -0.3852250521 0.4591693013
DDDD 1 0.7981147722 -0.0585939042 -0.5983564098 0.0393595178
DDDD 2 -0.6425061000 0.6947640900 0.2250488026 -0.2320383743
DDDD 3 0.8385272211 0.2639166153 0.3200991111 0.3532091148
DDDD 4 0.2657223364 -0.3808593553 0.7152496438 0.5222602210
DDDD 5 -0.1527179940 -0.1703675599 -0.5947228423 0.7706859604
DDDD 6 0.0482677365 0.6495149593 0.5371816960 -0.5359443710
DDDD 7 0.2048727867 -0.7840627932 -0.3218649836 -0.4895667573
DDDD 8 -0.5856602053 0.7959373909 0.0713582535 0.1356237196
DDDD 9 0.2366524036 0.3900042129 0.2724931101 -0.8471362693
END
